TYPE : Vertex Cover
DIMENSION: 29
EDGE_DATA_SECTION:
0 5
0 22
0 26
1 4
1 19
1 22
2 3
2 8
2 12
2 19
2 22
3 14
4 14
4 20
5 13
5 17
6 19
6 20
7 13
8 11
8 20
8 26
8 27
9 12
9 19
9 22
9 28
12 14
13 14
13 22
14 28
15 16
15 17
15 18
16 25
18 19
18 27
20 22
21 24
22 26
23 28
-1
VERTEX_DEGREE:
3.0 3.0 5.0 2.0 3.0 3.0 2.0 1.0 5.0 4.0 0.0 1.0 3.0 4.0 5.0 3.0 2.0 2.0 3.0 5.0 4.0 1.0 7.0 1.0 1.0 1.0 3.0 2.0 3.0
VERTEX_COVER:
0 3 4 8 12 13 16 17 18 19 20 21 22 28
EOF
